nproducts = 10;      
nsites = 5;
ncustomers = 4;

eb = [|1200, 1000, 1100, 3000, 1300, 900, 600, 1900, 1000, 1400,
      |1100, 1000, 2000, 1000, 1100, 600, 500, 1800, 1000, 1400,
      |1300, 1000, 1300, 1200, 1200, 1000, -200, 1700, 1000, 1400,
      |1200, 1100, 1500, 1400, 1400, 1000, 700, 2000, 1000, 1400|]; 
              
pname = ["Golf", "E-Golf", "Passat", "T-Roc", "Sharan", "Up", "E-Up", "Touareq", "Polo", "Tiguan"];
weight = [1380, 1615, 1465, 1245, 1695 ,980, 1235, 2005, 1120, 1510];

emissionWLTP = [108, 0, 139, 131, 170, 123, 0, 233, 125, 142];
supercredit = [100, 166, 100, 100, 100, 100, 166, 100, 100, 100];

sname = ["Wolfsburg", "Emden", "Palmela", "Bratislava", "Kaluga"];

cname = ["Frankreich", "Schweden", "Belgien", "Italien"];

productionPlan = [|1, 1, 0, 0, 0, 0, 0, 0, 0, 0,
                  |0, 0, 1, 0, 0, 0, 0, 0, 0, 0,
                  |0, 0, 0, 1, 1, 0, 0, 0, 0, 0,
                  |0, 0, 0, 0, 0, 1, 1, 1, 0, 0,
                  |0, 0, 0, 0, 0, 0, 0, 0, 1, 1|];

demand = [|1000,900,1300,1000,1400,700,500,1400,1000,1000,
          |1200,800,1800,1000,800,500,200,1500,1100,1200,
          |1300,900,1200,1000,700,300,200,2000,900,800,
          |1400,1000,1400,1200,600,400,1000,1000,1000,1000|];
          
excessdemand = [1.1, 1.1, 1.1, 1.1, 1.1, 1.1, 1.1, 1.1, 1.1, 1.1];

%maxProduction= [8500, 5700, 7700, 9700, 8000];
maxProduction= [8600, 5800, 7800, 9800, 8100];

emissiongoal = 1.0;
payperfine = 95;